13
0 237 685 377 391 334 57 35 28 229 2 27 236
237 0 23 162 232 469 341 59 156 236 174 74 339
685 23 0 846 300 204 552 159 28 75 346 424 148
377 162 846 0 631 114 490 32 745 39 33 169 930
391 232 300 631 0 131 839 12 579 214 19 242 403
334 469 204 114 131 0 137 59 55 102 148 418 29
57 341 552 490 839 137 0 105 451 305 539 483 132
35 59 159 32 12 59 105 0 365 196 181 222 7
28 156 28 745 579 55 451 365 0 397 92 403 166
229 236 75 39 214 102 305 196 397 0 85 22 146
2 174 346 33 19 148 539 181 92 85 0 71 710
27 74 424 169 242 418 483 222 403 22 71 0 483
236 339 148 930 403 29 132 7 166 146 710 483 0